c [-tl=1800000, -p=4, instances/xcsp3/FrequencyAllocationXCSP3-m1-celar_150_13_15_5_0.800000_28.xml]
c 4 solvers in parallel
c parse instance...
c solve instance...
o 32 
o 32 
o 30 
o 28 
o 26 
o 24 
o 22 
o 20 
o 12 
o 11 
o 10 
o 9 
o 8 
s SATISFIABLE
v <instantiation>
v 	<list>T[0] T[1] T[2] T[3] T[4] T[5] T[6] T[7] T[8] T[9] T[10] T[11] T[12] T[13] T[14] T[15] T[16] T[17] T[18] T[19] T[20] T[21] T[22] T[23] T[24] T[25] T[26] T[27] T[28] T[29] T[30] T[31] T[32] T[33] T[34] T[35] T[36] T[37] T[38] T[39] T[40] T[41] T[42] T[43] T[44] T[45] T[46] T[47] T[48] T[49] T[50] T[51] T[52] T[53] T[54] T[55] T[56] T[57] T[58] T[59] T[60] T[61] T[62] T[63] T[64] T[65] T[66] T[67] T[68] T[69] T[70] T[71] T[72] T[73] T[74] T[75] T[76] T[77] T[78] T[79] T[80] T[81] T[82] T[83] T[84] T[85] T[86] T[87] T[88] T[89] T[90] T[91] T[92] T[93] T[94] T[95] T[96] T[97] T[98] T[99] T[100] T[101] T[102] T[103] T[104] T[105] T[106] T[107] T[108] T[109] T[110] T[111] T[112] T[113] T[114] T[115] T[116] T[117] T[118] T[119] T[120] T[121] T[122] T[123] T[124] T[125] T[126] T[127] T[128] T[129] T[130] T[131] T[132] T[133] T[134] T[135] T[136] T[137] T[138] T[139] T[140] T[141] T[142] T[143] T[144] T[145] T[146] T[147] T[148] T[149] R[0] R[1] R[2] R[3] R[4] R[5] R[6] R[7] R[8] R[9] R[10] R[11] R[12] R[13] R[14] R[15] R[16] R[17] R[18] R[19] R[20] R[21] R[22] R[23] R[24] R[25] R[26] R[27] R[28] R[29] R[30] R[31] R[32] R[33] R[34] R[35] R[36] R[37] R[38] R[39] R[40] R[41] R[42] R[43] R[44] R[45] R[46] R[47] R[48] R[49] R[50] R[51] R[52] R[53] R[54] R[55] R[56] R[57] R[58] R[59] R[60] R[61] R[62] R[63] R[64] R[65] R[66] R[67] R[68] R[69] R[70] R[71] R[72] R[73] R[74] R[75] R[76] R[77] R[78] R[79] R[80] R[81] R[82] R[83] R[84] R[85] R[86] R[87] R[88] R[89] R[90] R[91] R[92] R[93] R[94] R[95] R[96] R[97] R[98] R[99] R[100] R[101] R[102] R[103] R[104] R[105] R[106] R[107] R[108] R[109] R[110] R[111] R[112] R[113] R[114] R[115] R[116] R[117] R[118] R[119] R[120] R[121] R[122] R[123] R[124] R[125] R[126] R[127] R[128] R[129] R[130] R[131] R[132] R[133] R[134] R[135] R[136] R[137] R[138] R[139] R[140] R[141] R[142] R[143] R[144] R[145] R[146] R[147] R[148] R[149] nFrequencies </list>
v 	<values>630 168 168 728 630 490 238 308 168 406 728 238 728 238 308 630 560 560 728 168 406 168 630 728 308 168 490 728 728 406 560 238 630 238 560 560 630 406 560 630 490 630 238 406 560 728 490 560 406 308 490 560 630 168 490 490 560 630 238 406 560 406 560 630 630 406 560 406 490 308 728 238 728 630 238 238 728 560 406 168 728 308 630 308 168 560 490 630 560 168 560 308 308 168 238 406 490 728 630 490 238 490 490 238 238 728 560 728 238 238 238 490 728 630 490 560 308 728 490 168 560 406 490 406 308 238 560 560 728 728 238 406 238 490 406 490 238 728 168 728 308 406 406 168 490 560 308 406 168 630 308 490 490 406 308 168 560 630 490 728 406 560 406 560 630 308 238 238 406 490 728 490 308 406 630 490 168 406 406 728 238 560 308 560 238 238 308 728 238 308 168 308 560 728 238 406 168 238 728 630 168 238 308 490 168 168 238 308 560 728 238 728 238 308 308 728 238 728 168 630 406 560 406 308 560 560 406 238 728 490 406 630 308 630 490 238 168 308 238 490 238 630 630 490 560 728 168 406 308 168 560 168 168 560 560 406 238 406 560 560 560 168 406 308 168 238 630 406 168 490 238 728 168 728 630 560 238 238 406 406 560 728 560 168 728 168 560 406 490 406 630 728 728 490 168 238 630 728 490 308 8 </values>
v </instantiation>
real 1801.74
user 7183.14
sys 10.60
